 ! --------------------------------------------------- CP Optimizer 22.1.1.0 --
 ! Satisfiability problem - 21975 variables, 167480 constraints
 ! Presolve      : 13500 extractables eliminated
 ! TimeLimit            = 3600
 ! Workers              = 1
 ! Initial process time : 1.53s (1.53s extraction + 0.00s propagation)
 !  . Log search space  : 227460.6 (before), 227460.6 (after)
 !  . Memory usage      : 147.3 MB (before), 147.3 MB (after)
 ! Using sequential search.
 ! ----------------------------------------------------------------------------
 !               Branches  Non-fixed            Branch decision
                     1023      20812        F          presenceOf(copy_trips:27_0)
                     2000      14424                   presenceOf(copy_lane_parking:4_94)
                     3000      14521                   presenceOf(copy_bus_parking:8_118)
                     4000      10417        F          presenceOf(copy_trips:18_224)
                     5000       7818        F         !presenceOf(copy_trips:12_0)
                     6000      14142        F          presenceOf(copy_bus_parking:15_221)
                     7000      14148        F          presenceOf(copy_bus_parking:22_38)
                     8000      13408            245  = endOf(start_parking:19)
                     9000      15316            245  = endOf(start_parking:29)
                    10000      14130        F          presenceOf(copy_trips:9_222)
                    11000      14130                  !presenceOf(copy_bus_parking:21_221)
                    12000       7822                   presenceOf(copy_lane_parking:4_48)
                    13000      14151        F         !presenceOf(copy_trips:8_0)
                    14000      14145        F          presenceOf(copy_trips:25_222)
                    15000       7918                   presenceOf(copy_lane_parking:1_31)
                    16000      10087        F          presenceOf(copy_bus_parking:10_0)
                    17000      10710                  !presenceOf(copy_bus_parking:0_12)
                    18000      18120                   presenceOf(copy_lane_parking:4_199)
                    19000      10075                   presenceOf(copy_lane_parking:0_156)
                    20000      16596        F          presenceOf(copy_bus_parking:4_26)
 ! Time = 13.31s, Average fail depth = 253, Memory usage = 441.8 MB
 !               Branches  Non-fixed            Branch decision
                    21000      10420                  !presenceOf(copy_bus_parking:1_28)
                    22000      10039        F          presenceOf(copy_bus_parking:17_26)
                    23000      10039        F          presenceOf(copy_bus_parking:28_26)
                    24000      10039        F          presenceOf(copy_bus_parking:20_26)
                    25000      10042        F          presenceOf(copy_bus_parking:29_26)
                    26000      10087        F          presenceOf(copy_bus_parking:17_26)
                    27000      10087        F          presenceOf(copy_bus_parking:3_26)
                    28000      10087                   presenceOf(copy_bus_parking:10_134)
                    29000       9972                  !presenceOf(copy_trips:22_224)
                    30000      14145                   presenceOf(copy_lane_parking:0_66)
                    31000      11325                   presenceOf(copy_lane_parking:3_216)
                    32000      14157                  !presenceOf(copy_bus_parking:29_12)
                    33000       7910                  !presenceOf(copy_trips:11_153)
                    34000       7910        F          presenceOf(copy_trips:1_153)
                    35000       7910        F         !presenceOf(copy_trips:1_153)
                    36000       7910                   presenceOf(copy_lane_parking:1_34)
                    37000      13088                  !presenceOf(copy_trips:27_6)
                    38000      12612                  !presenceOf(copy_bus_parking:17_21)
                    39000      15113                  !presenceOf(copy_trips:1_29)
                    40000      14136                  !presenceOf(copy_trips:4_221)
 ! Time = 25.05s, Average fail depth = 296, Memory usage = 442.2 MB
 !               Branches  Non-fixed            Branch decision
                    41000      14139            245 != endOf(start_parking:27)
                    42000      10420                   presenceOf(copy_lane_parking:2_66)
                    43000      12262                   presenceOf(copy_bus_parking:28_151)
                    44000       7819                   presenceOf(copy_lane_parking:0_100)
                    45000      14142        F          presenceOf(copy_trips:2_0)
                    46000      16196                  !presenceOf(copy_trips:5_18)
                    47000      14414                   presenceOf(copy_lane_parking:3_95)
                    48000      19791                   presenceOf(copy_lane_parking:3_3)
                    49000      15943                   presenceOf(copy_lane_parking:1_25)
                    50000      14145                  !presenceOf(copy_trips:19_221)
                    51000      14139                  !presenceOf(copy_bus_parking:9_220)
                    52000      14130                  !presenceOf(copy_trips:22_221)
                    53000       7921        F          presenceOf(copy_bus_parking:13_167)
                    54000       7921        F          presenceOf(copy_bus_parking:26_167)
                    55000       7921        F          presenceOf(copy_bus_parking:13_167)
                    56000       7921                  !presenceOf(copy_bus_parking:13_167)
                    57000       7921        F          presenceOf(copy_bus_parking:13_167)
                    58000       7921        F          presenceOf(copy_bus_parking:13_167)
                    59000       7921        F          presenceOf(copy_bus_parking:13_167)
                    60000       7921                  !presenceOf(copy_bus_parking:26_167)
 ! Time = 32.76s, Average fail depth = 302, Memory usage = 442.2 MB
 !               Branches  Non-fixed            Branch decision
                    61000       7921        F          presenceOf(copy_bus_parking:26_167)
                    62000       7921        F          presenceOf(copy_bus_parking:13_167)
                    63000       7921        F          presenceOf(copy_bus_parking:13_167)
                    64000       7921                  !presenceOf(copy_bus_parking:13_167)
                    65000       7921        F          presenceOf(copy_bus_parking:13_167)
                    66000       7921        F          presenceOf(copy_bus_parking:24_224)
                    67000      14145        F          presenceOf(copy_bus_parking:19_221)
                    68000      14151                  !presenceOf(copy_trips:12_29)
                    69000      15407                  !presenceOf(copy_trips:6_29)
                    70000      15407                  !presenceOf(copy_trips:16_29)
                    71000      14982                   presenceOf(copy_lane_parking:0_214)
                    72000       7918                  !presenceOf(copy_bus_parking:11_153)
                    73000       7908                  !presenceOf(copy_bus_parking:25_153)
                    74000       7908                   presenceOf(copy_lane_parking:2_14)
                    75000      14552                   presenceOf(copy_bus_parking:11_155)
                    76000      14136        F          presenceOf(copy_trips:1_221)
                    77000      14136                  !presenceOf(copy_trips:0_224)
                    78000      14136                  !presenceOf(copy_trips:21_224)
                    79000      14139                   presenceOf(copy_lane_parking:0_76)
                    80000      14121        F          presenceOf(copy_trips:17_224)
 ! Time = 41.13s, Average fail depth = 306, Memory usage = 442.2 MB
 !               Branches  Non-fixed            Branch decision
                    81000      14121                  !presenceOf(copy_bus_parking:23_6)
                    82000      14133        F          presenceOf(copy_bus_parking:28_222)
                    83000      14130        F          presenceOf(copy_trips:18_221)
                    84000      14139        F          presenceOf(copy_trips:11_221)
                    85000      14139        F         !presenceOf(copy_trips:28_222)
                    86000      14145                   presenceOf(copy_lane_parking:1_106)
                    87000       7811                  !presenceOf(copy_trips:4_167)
                    88000       7811        F         !presenceOf(copy_trips:26_167)
                    89000       7811                  !presenceOf(copy_trips:25_167)
                    90000       7811        F          presenceOf(copy_trips:28_220)
                    91000       7811        F          presenceOf(copy_trips:25_220)
                    92000       7811        F          presenceOf(copy_trips:16_220)
                    93000       7811        F          presenceOf(copy_trips:23_220)
                    94000       7811                  !presenceOf(copy_trips:22_167)
                    95000       7811        F         !presenceOf(copy_trips:26_167)
                    96000       7811                  !presenceOf(copy_trips:25_167)
                    97000       7811                  !presenceOf(copy_trips:18_167)
                    98000       7811        F          presenceOf(copy_trips:4_220)
                    99000       7811                  !presenceOf(copy_trips:25_167)
                     100k       7811                   presenceOf(copy_lane_parking:2_86)
 ! Time = 46.59s, Average fail depth = 316, Memory usage = 442.2 MB
 !               Branches  Non-fixed            Branch decision
                     101k      14154        F          presenceOf(copy_trips:3_224)
                     102k      13022                  !presenceOf(copy_trips:17_3)
                     103k      13020        F         !presenceOf(copy_trips:1_0)
                     104k      13042                  !presenceOf(copy_trips:10_3)
                     105k      13032                  !presenceOf(copy_bus_parking:12_221)
                     106k      14139        F          presenceOf(copy_trips:5_0)
                     107k      19390        F          presenceOf(copy_bus_parking:10_3)
                     108k      19388                  !presenceOf(copy_bus_parking:25_6)
                     109k      19388                  !presenceOf(copy_bus_parking:14_3)
                     110k      19388                   presenceOf(copy_trips:13_7)
                     111k      19388                  !presenceOf(copy_bus_parking:14_6)
                     112k      19390                  !presenceOf(copy_bus_parking:5_6)
                     113k      19390        F          presenceOf(copy_trips:3_7)
                     114k      19390        F         !presenceOf(copy_bus_parking:10_3)
                     115k      19455                   presenceOf(copy_bus_parking:16_6)
                     116k      19455        F          presenceOf(copy_trips:12_7)
                     117k      19390        F          presenceOf(copy_bus_parking:10_3)
                     118k      19390                  !presenceOf(copy_bus_parking:3_6)
                     119k      19390                   presenceOf(copy_lane_parking:2_92)
                     120k      12233                   presenceOf(copy_trips:8_5)
 ! Time = 59.35s, Average fail depth = 305, Memory usage = 442.2 MB
 !               Branches  Non-fixed            Branch decision
                     121k      12082                   presenceOf(copy_lane_parking:3_196)
                     122k      14139                  !presenceOf(copy_trips:2_62)
                     123k       7074                   presenceOf(copy_lane_parking:1_153)
                     124k      15592                  !presenceOf(copy_bus_parking:6_20)
                     125k      14142        F          presenceOf(copy_trips:24_221)
                     126k      14139        F          presenceOf(copy_bus_parking:15_23)
                     127k      14133        F         !presenceOf(copy_bus_parking:9_224)
                     128k      13396                  !presenceOf(copy_bus_parking:11_0)
                     129k      12523                   presenceOf(copy_trips:16_5)
                     130k      19192        F          presenceOf(copy_bus_parking:4_10)
                     131k      19189                  !presenceOf(copy_trips:7_11)
                     132k      19176        F         !presenceOf(copy_bus_parking:17_10)
                     133k       7921                   presenceOf(copy_lane_parking:3_186)
                     134k      15014        F          presenceOf(copy_bus_parking:12_38)
                     135k      15487                  !presenceOf(copy_trips:28_55)
                     136k       7469                   presenceOf(copy_lane_parking:0_173)
                     137k      18577        F          presenceOf(copy_bus_parking:2_5)
                     138k      11854                  !presenceOf(copy_trips:10_101)
                     139k       8495        F          presenceOf(copy_trips:12_70)
                     140k       8990        F          presenceOf(copy_trips:3_93)
 ! Time = 72.67s, Average fail depth = 298, Memory usage = 458.7 MB
 !               Branches  Non-fixed            Branch decision
                     141k       8990        F          presenceOf(copy_trips:21_93)
                     142k       8990                  !presenceOf(copy_trips:19_0)
                     143k      15484                   presenceOf(copy_trips:16_53)
                     144k      14295                   presenceOf(copy_lane_parking:4_83)
                     145k      14136        F          presenceOf(copy_bus_parking:22_222)
                     146k      14136                  !presenceOf(copy_bus_parking:17_221)
                     147k      14139        F          presenceOf(copy_bus_parking:17_222)
                     148k      14136        F          presenceOf(copy_bus_parking:11_222)
                     149k      14133        F          presenceOf(copy_bus_parking:0_222)
                     150k      14136        F          presenceOf(copy_trips:9_224)
                     151k      14139                  !presenceOf(copy_bus_parking:11_222)
                     152k      14136        F          presenceOf(copy_bus_parking:12_222)
                     153k      14136        F          presenceOf(copy_bus_parking:4_222)
                     154k      14139        F          presenceOf(copy_bus_parking:7_222)
                     155k      14136                   presenceOf(copy_bus_parking:14_222)
                     156k      14136        F          presenceOf(copy_bus_parking:17_222)
                     157k      14136                   presenceOf(copy_lane_parking:0_134)
                     158k      14142            on charge:20_4
                     159k      15360        F          presenceOf(copy_trips:16_26)
                     160k      15255                   presenceOf(copy_bus_parking:14_5)
 ! Time = 81.32s, Average fail depth = 297, Memory usage = 458.7 MB
 !               Branches  Non-fixed            Branch decision
                     161k      10078                  !presenceOf(copy_bus_parking:0_36)
                     162k      10078        F          presenceOf(copy_trips:29_61)
                     163k       6144                   presenceOf(copy_lane_parking:2_139)
                     164k      14139        F          presenceOf(copy_trips:17_224)
                     165k      14142        F          presenceOf(copy_trips:1_224)
                     166k      14142        F          presenceOf(copy_trips:21_224)
                     167k      14145        F          presenceOf(copy_trips:6_70)
                     168k       8825        F          presenceOf(copy_trips:15_94)
                     169k       8740        F         !presenceOf(copy_trips:15_108)
                     170k       8748                  !presenceOf(copy_trips:15_108)
                     171k       8754        F          presenceOf(copy_bus_parking:12_222)
                     172k      14203        F          presenceOf(copy_bus_parking:5_222)
                     173k      14203        F          presenceOf(copy_bus_parking:20_222)
                     174k      14197        F          presenceOf(copy_bus_parking:0_222)
                     175k      14203        F          presenceOf(copy_bus_parking:6_222)
                     176k      14197        F          presenceOf(copy_bus_parking:5_222)
                     177k      14197        F          presenceOf(copy_bus_parking:16_222)
                     178k      14197                  !presenceOf(copy_trips:4_221)
                     179k      14203        F          presenceOf(copy_bus_parking:29_222)
                     180k      14209        F          presenceOf(copy_bus_parking:14_222)
 ! Time = 89.28s, Average fail depth = 299, Memory usage = 460.8 MB
 !               Branches  Non-fixed            Branch decision
                     181k      14203        F          presenceOf(copy_bus_parking:13_222)
                     182k      14206        F          presenceOf(copy_bus_parking:3_222)
                     183k      14200        F          presenceOf(copy_bus_parking:20_222)
                     184k      14203        F          presenceOf(copy_bus_parking:29_222)
                     185k      14200        F          presenceOf(copy_bus_parking:10_222)
                     186k      14203        F          presenceOf(copy_bus_parking:9_222)
                     187k      14203        F          presenceOf(copy_bus_parking:24_222)
                     188k      14209                  !presenceOf(copy_trips:27_221)
                     189k      14209                  !presenceOf(copy_bus_parking:16_222)
                     190k      14203                  !presenceOf(copy_bus_parking:21_222)
                     191k      14209                  !presenceOf(copy_bus_parking:6_222)
                     192k      14145        F          presenceOf(copy_bus_parking:23_222)
                     193k      14133        F          presenceOf(copy_bus_parking:7_222)
                     194k      14133                  !presenceOf(copy_trips:16_221)
                     195k      14133        F          presenceOf(copy_bus_parking:4_222)
                     196k      14133        F          presenceOf(copy_trips:21_224)
                     197k      14139                  !presenceOf(copy_trips:15_221)
                     198k      14139        F          presenceOf(copy_bus_parking:13_222)
                     199k      14139        F          presenceOf(copy_bus_parking:25_222)
                     200k      14139        F          presenceOf(copy_bus_parking:5_222)
 ! Time = 94.36s, Average fail depth = 300, Memory usage = 460.8 MB
 !               Branches  Non-fixed            Branch decision
                     201k      14139        F          presenceOf(copy_bus_parking:19_222)
                     202k      14139                  !presenceOf(copy_bus_parking:0_222)
                     203k      14139                  !presenceOf(copy_bus_parking:23_222)
                     204k      14139                  !presenceOf(copy_trips:16_221)
                     205k      14203        F          presenceOf(copy_bus_parking:0_222)
                     206k      14203        F          presenceOf(copy_bus_parking:19_222)
                     207k      14200        F          presenceOf(copy_bus_parking:1_222)
                     208k      14197        F          presenceOf(copy_bus_parking:9_222)
                     209k      14197        F          presenceOf(copy_bus_parking:16_222)
                     210k      14197        F          presenceOf(copy_bus_parking:17_222)
                     211k      14203        F          presenceOf(copy_bus_parking:28_222)
                     212k      14197        F          presenceOf(copy_bus_parking:13_222)
                     213k      14203                  !presenceOf(copy_trips:27_221)
                     214k      14206        F          presenceOf(copy_bus_parking:3_222)
                     215k      14203        F          presenceOf(copy_bus_parking:25_222)
                     216k      14200                  !presenceOf(copy_trips:10_221)
                     217k      14203        F          presenceOf(copy_bus_parking:14_222)
                     218k      14200        F          presenceOf(copy_bus_parking:21_222)
                     219k      14203                  !presenceOf(copy_trips:22_221)
                     220k      14209                  !presenceOf(copy_trips:12_221)
 ! Time = 99.42s, Average fail depth = 300, Memory usage = 460.8 MB
 !               Branches  Non-fixed            Branch decision
                     221k      14203        F          presenceOf(copy_bus_parking:23_222)
                     222k      14215        F   on charge:2_23
                     223k      13325                  !presenceOf(copy_trips:29_84)
                     224k      10214                   presenceOf(copy_lane_parking:0_83)
                     225k      18404                   presenceOf(copy_lane_parking:4_35)
                     226k      16104        F          presenceOf(copy_trips:28_48)
                     227k      16002                  !presenceOf(copy_trips:9_50)
                     228k      16098        F          presenceOf(copy_trips:14_48)
                     229k      16098        F          presenceOf(copy_trips:21_16)
                     230k      10399                   presenceOf(copy_lane_parking:3_100)
                     231k      14112                  !presenceOf(copy_bus_parking:9_6)
                     232k      16046        F   on charge:17_13
                     233k       7080                   presenceOf(copy_lane_parking:2_33)
                     234k      15441                  !presenceOf(copy_trips:17_62)
                     235k      12528                   presenceOf(copy_bus_parking:3_9)
                     236k      12528        F         !presenceOf(copy_trips:15_8)
                     237k      12528        F          presenceOf(copy_bus_parking:8_9)
                     238k      12528        F          presenceOf(copy_bus_parking:26_222)
                     239k      13378                  !presenceOf(copy_trips:4_1)
                     240k      13244        F          presenceOf(copy_trips:23_6)
 ! Time = 111.15s, Average fail depth = 297, Memory usage = 460.9 MB
 !               Branches  Non-fixed            Branch decision
                     241k      13244                  !presenceOf(copy_trips:4_3)
                     242k      13191        F          presenceOf(copy_trips:9_6)
                     243k      13191        F         !presenceOf(copy_trips:3_1)
                     244k      11237                  !presenceOf(copy_bus_parking:10_34)
                     245k      10531        F          presenceOf(copy_bus_parking:7_47)
                     246k      10531        F          presenceOf(copy_bus_parking:7_35)
                     247k      10669        F          presenceOf(copy_bus_parking:25_35)
                     248k      10531        F          presenceOf(copy_bus_parking:6_30)
                     249k      10531                  !presenceOf(copy_bus_parking:28_30)
                     250k      10531                  !presenceOf(copy_bus_parking:8_30)
                     251k      10531        F         !presenceOf(copy_bus_parking:1_44)
                     252k      10531                  !presenceOf(copy_bus_parking:16_30)
                     253k      10531                   presenceOf(copy_lane_parking:4_47)
                     254k      12609                   presenceOf(copy_lane_parking:0_47)
                     255k      12472        F          presenceOf(copy_bus_parking:20_221)
                     256k      12915            245 != endOf(start_parking:28)
                     257k      15707        F          presenceOf(copy_trips:17_4)
                     258k      12080                  !presenceOf(copy_trips:15_97)
                     259k      11697                   presenceOf(copy_bus_parking:0_224)
                     260k      14130                  !presenceOf(copy_trips:10_40)
 ! Time = 121.80s, Average fail depth = 297, Memory usage = 460.9 MB
 !               Branches  Non-fixed            Branch decision
                     261k       8577            on charge:11_119
                     262k       8421                  !presenceOf(copy_trips:19_135)
                     263k       8422                  !presenceOf(copy_trips:12_136)
                     264k       8421        F         !presenceOf(copy_bus_parking:1_0)
                     265k      11203                   presenceOf(copy_trips:20_102)
                     266k       8575        F          presenceOf(copy_trips:15_67)
                     267k      15354                  !presenceOf(copy_trips:18_68)
                     268k      15348                  !presenceOf(copy_trips:19_63)
                     269k      15348            on charge:3_37
                     270k      15348        F         !presenceOf(copy_trips:18_68)
                     271k      15360        F          presenceOf(copy_trips:0_67)
                     272k      15358        F          presenceOf(copy_trips:8_63)
                     273k      15354                  !presenceOf(copy_trips:21_67)
                     274k      15410                  !presenceOf(copy_trips:19_67)
                     275k      15351        F          presenceOf(copy_trips:15_68)
                     276k      15351            on charge:3_37
                     277k      15352                  !presenceOf(copy_trips:8_67)
                     278k      15354        F          presenceOf(copy_trips:18_67)
                     279k      14158                   presenceOf(copy_lane_parking:2_155)
                     280k      18974                   presenceOf(copy_lane_parking:2_190)
 ! Time = 131.06s, Average fail depth = 290, Memory usage = 460.9 MB
 !               Branches  Non-fixed            Branch decision
                     281k       9155                  !presenceOf(copy_bus_parking:20_162)
                     282k       9155                  !presenceOf(copy_bus_parking:24_162)
                     283k       9155                  !presenceOf(copy_bus_parking:8_162)
                     284k       9155                   presenceOf(copy_trips:2_59)
                     285k       5418        F          presenceOf(copy_trips:17_166)
 *                   285k  133.42s                   -
 ! ----------------------------------------------------------------------------
 ! Search completed, 1 solution found.
 ! ----------------------------------------------------------------------------
 ! Number of branches     : 285635
 ! Number of fails        : 121301
 ! Total memory usage     : 500.2 MB (487.1 MB CP Optimizer + 13.1 MB Concert)
 ! Time spent in solve    : 133.43s (131.91s engine + 1.53s extraction)
 ! Search speed (br. / s) : 2165.5
 ! ----------------------------------------------------------------------------
